36291 53003
61834 22508
20359 59541
34698 65430
40007 62868
4137 47059
12159 51073
30680 26842
10459 57841
62058 7025
40739 36920
19920 19906
7627 9257
44942 19270
10461 39662
8280 60804
58603 45420
48217 2145
38407 57319
57876 10734
3089 29259
11900 23143
55406 50771
5345 52738
22410 81
38521 20331
4003 10219
55842 41926
7347 9622
16096 20352
19949 52771
33133 39664
26299 20328
10507 13007
28822 10597
8819 12029
34951 247
65313 21561
36761 40634
60425 58748
55734 51507
54990 48006
60853 23522
57578 36822
60095 61500
13862 65134
25117 21297
19493 21130
55751 12010
13389 16770
60307 20900
46659 31876
60683 57359
9222 52006
13875 8874
26797 47216
26742 34662
50375 14304
56728 30813
54114 29600
17375 37255
13023 11006
31682 37805
62470 53575
29524 57148
20376 6811
28186 35958
33943 60910
8085 53405
4566 28692
18169 52720
2927 14887
2451 22131
